(set-info :source |printed by MathSAT|)
(declare-fun flby5 () Bool)
(declare-fun flby4 () Bool)
(declare-fun _OK_ () Bool)
(declare-fun flby2.next () Bool)
(declare-fun b.next () Bool)
(declare-fun c.next () Bool)
(declare-fun a.next () Bool)
(declare-fun flby3 () Bool)
(declare-fun c () Bool)
(declare-fun flby5.next () Bool)
(declare-fun _OK_.next () Bool)
(declare-fun flby3.next () Bool)
(declare-fun flby4.next () Bool)
(declare-fun b () Bool)
(declare-fun a () Bool)
(declare-fun flby () Bool)
(declare-fun flby.next () Bool)
(declare-fun flby2 () Bool)
(define-fun .def_131 () Bool (= flby3.next c.next))
(define-fun .def_128 () Bool (= flby2.next b.next))
(define-fun .def_126 () Bool (= flby.next a.next))
(define-fun .def_124 () Bool (= flby5.next _OK_.next))
(define-fun .def_127 () Bool (and .def_124 .def_126))
(define-fun .def_129 () Bool (and .def_127 .def_128))
(define-fun .def_132 () Bool (and .def_129 .def_131))
(define-fun .def_85 () Bool (= c flby3))
(define-fun .def_81 () Bool (= b flby2))
(define-fun .def_77 () Bool (= a flby))
(define-fun .def_74 () Bool (= _OK_ flby5))
(define-fun .def_78 () Bool (and .def_74 .def_77))
(define-fun .def_82 () Bool (and .def_78 .def_81))
(define-fun .def_86 () Bool (and .def_82 .def_85))
(define-fun .def_133 () Bool (and .def_86 .def_132))
(define-fun .def_118 () Bool (not b.next))
(define-fun .def_119 () Bool (= flby4 .def_118))
(define-fun .def_121 () Bool (= .def_119 flby5.next))
(define-fun .def_115 () Bool (= b flby4.next))
(define-fun .def_100 () Bool (not a))
(define-fun .def_109 () Bool (and c .def_100))
(define-fun .def_108 () Bool (and a b))
(define-fun .def_110 () Bool (or .def_108 .def_109))
(define-fun .def_112 () Bool (= .def_110 flby3.next))
(define-fun .def_106 () Bool (= .def_100 flby.next))
(define-fun .def_101 () Bool (and b .def_100))
(define-fun .def_97 () Bool (not b))
(define-fun .def_96 () Bool (not c))
(define-fun .def_98 () Bool (and .def_96 .def_97))
(define-fun .def_99 () Bool (and a .def_98))
(define-fun .def_102 () Bool (or .def_99 .def_101))
(define-fun .def_104 () Bool (= .def_102 flby2.next))
(define-fun .def_107 () Bool (and .def_104 .def_106))
(define-fun .def_113 () Bool (and .def_107 .def_112))
(define-fun .def_116 () Bool (and .def_113 .def_115))
(define-fun .def_122 () Bool (and .def_116 .def_121))
(define-fun .def_134 () Bool (and .def_122 .def_133))
(assert .def_134)
